p edge 128 1170
e 1 120 3
e 1 110 1
e 1 109 4
e 1 108 4
e 1 103 4
e 1 102 3
e 1 98 8
e 1 90 3
e 1 80 7
e 1 79 5
e 1 72 7
e 1 67 2
e 1 57 4
e 1 55 5
e 1 44 7
e 1 31 3
e 2 127 8
e 2 126 10
e 2 123 2
e 2 116 2
e 2 115 3
e 2 113 3
e 2 111 7
e 2 107 5
e 2 96 5
e 2 94 8
e 2 93 8
e 2 92 5
e 2 84 5
e 2 82 3
e 2 75 4
e 2 69 9
e 2 68 5
e 2 66 1
e 2 61 10
e 2 58 9
e 2 53 4
e 2 52 1
e 2 45 8
e 2 41 9
e 2 38 6
e 2 30 2
e 2 28 3
e 2 25 10
e 2 24 7
e 2 20 1
e 2 10 3
e 3 87 10
e 3 81 6
e 3 48 3
e 3 9 10
e 3 5 9
e 4 124 7
e 4 104 4
e 4 77 2
e 4 54 6
e 4 49 9
e 4 40 6
e 4 29 7
e 4 26 7
e 4 21 9
e 4 18 5
e 4 15 7
e 4 9 6
e 5 87 1
e 5 48 1
e 5 32 1
e 6 127 7
e 6 122 2
e 6 111 6
e 6 106 4
e 6 96 7
e 6 95 7
e 6 89 4
e 6 84 5
e 6 71 4
e 6 70 10
e 6 60 4
e 6 56 4
e 6 23 8
e 6 13 8
e 7 128 6
e 7 126 8
e 7 123 7
e 7 115 1
e 7 101 6
e 7 99 9
e 7 92 5
e 7 91 6
e 7 88 4
e 7 83 1
e 7 73 1
e 7 68 3
e 7 66 10
e 7 62 3
e 7 52 3
e 7 43 10
e 7 28 10
e 7 19 6
e 7 14 7
e 7 8 2
e 8 128 5
e 8 126 8
e 8 125 9
e 8 123 1
e 8 115 2
e 8 114 4
e 8 110 7
e 8 101 6
e 8 100 8
e 8 99 3
e 8 92 2
e 8 91 5
e 8 88 2
e 8 78 6
e 8 76 10
e 8 74 5
e 8 73 4
e 8 68 4
e 8 66 1
e 8 62 5
e 8 52 8
e 8 43 1
e 8 39 10
e 8 28 9
e 8 27 6
e 8 19 6
e 8 14 3
e 9 124 6
e 9 104 2
e 9 49 7
e 9 40 7
e 9 29 3
e 9 26 8
e 9 21 8
e 9 18 1
e 10 127 8
e 10 126 5
e 10 123 3
e 10 118 7
e 10 116 1
e 10 115 2
e 10 113 10
e 10 111 1
e 10 107 4
e 10 96 2
e 10 94 2
e 10 93 3
e 10 92 7
e 10 86 3
e 10 84 2
e 10 82 7
e 10 75 6
e 10 69 10
e 10 66 7
e 10 61 2
e 10 58 3
e 10 53 3
e 10 52 4
e 10 46 8
e 10 45 8
e 10 41 8
e 10 38 10
e 10 36 8
e 10 30 7
e 10 28 3
e 10 25 9
e 10 24 4
e 10 20 6
e 11 85 5
e 11 81 10
e 11 63 4
e 11 59 10
e 11 50 4
e 11 42 9
e 11 17 6
e 12 102 5
e 12 80 6
e 12 47 1
e 12 37 8
e 12 33 3
e 12 32 7
e 12 31 10
e 12 16 4
e 13 127 6
e 13 122 10
e 13 111 7
e 13 106 4
e 13 96 4
e 13 95 10
e 13 93 3
e 13 89 2
e 13 84 3
e 13 75 6
e 13 71 7
e 13 70 10
e 13 60 2
e 13 56 7
e 13 23 1
e 14 101 1
e 14 100 3
e 14 99 7
e 14 91 8
e 14 73 3
e 14 62 10
e 14 52 10
e 14 43 9
e 14 28 3
e 14 19 10
e 15 124 3
e 15 77 2
e 15 54 9
e 15 40 9
e 15 29 6
e 15 26 2
e 15 21 4
e 15 18 9
e 16 117 5
e 16 102 3
e 16 87 6
e 16 74 5
e 16 35 2
e 16 33 5
e 16 32 4
e 17 85 2
e 17 81 5
e 17 63 1
e 17 59 1
e 17 50 2
e 17 42 2
e 18 124 1
e 18 104 6
e 18 77 9
e 18 49 4
e 18 40 1
e 18 26 3
e 18 21 9
e 19 128 9
e 19 125 6
e 19 114 7
e 19 105 4
e 19 101 9
e 19 100 10
e 19 97 10
e 19 91 2
e 19 88 1
e 19 78 1
e 19 74 9
e 19 73 8
e 19 65 4
e 19 62 5
e 19 43 6
e 19 39 8
e 20 127 5
e 20 126 5
e 20 123 1
e 20 118 3
e 20 116 8
e 20 115 5
e 20 113 1
e 20 111 10
e 20 94 4
e 20 93 4
e 20 92 8
e 20 86 10
e 20 83 2
e 20 82 3
e 20 75 6
e 20 69 9
e 20 68 10
e 20 66 7
e 20 61 2
e 20 58 3
e 20 53 9
e 20 52 4
e 20 46 7
e 20 45 1
e 20 41 10
e 20 38 3
e 20 36 6
e 20 30 7
e 20 28 4
e 20 25 1
e 20 24 9
e 20 22 8
e 21 124 10
e 21 104 4
e 21 77 6
e 21 49 3
e 21 40 1
e 21 29 7
e 21 26 10
e 22 118 3
e 22 116 4
e 22 94 2
e 22 86 9
e 22 83 10
e 22 82 4
e 22 61 2
e 22 58 10
e 22 53 10
e 22 46 4
e 22 38 6
e 22 36 9
e 22 30 10
e 22 25 10
e 22 24 1
e 23 122 4
e 23 106 4
e 23 96 5
e 23 95 4
e 23 89 6
e 23 71 2
e 23 70 6
e 23 67 8
e 23 64 1
e 23 60 4
e 23 56 2
e 24 127 4
e 24 126 9
e 24 123 3
e 24 118 9
e 24 116 4
e 24 115 10
e 24 113 7
e 24 111 5
e 24 94 6
e 24 93 1
e 24 86 1
e 24 84 7
e 24 83 10
e 24 82 1
e 24 75 10
e 24 69 2
e 24 66 6
e 24 61 8
e 24 58 7
e 24 53 6
e 24 52 7
e 24 46 6
e 24 45 1
e 24 41 6
e 24 38 10
e 24 36 5
e 24 30 2
e 24 25 3
e 25 126 4
e 25 123 6
e 25 118 2
e 25 116 4
e 25 115 10
e 25 113 8
e 25 94 5
e 25 93 5
e 25 86 1
e 25 83 10
e 25 82 7
e 25 69 1
e 25 66 1
e 25 61 2
e 25 58 9
e 25 53 6
e 25 52 8
e 25 46 8
e 25 45 6
e 25 41 7
e 25 38 2
e 25 36 6
e 25 30 10
e 26 124 2
e 26 104 5
e 26 77 7
e 26 54 8
e 26 49 1
e 26 40 2
e 26 29 1
e 27 128 4
e 27 122 5
e 27 114 5
e 27 110 4
e 27 109 3
e 27 108 4
e 27 102 3
e 27 100 4
e 27 92 5
e 27 91 1
e 27 90 8
e 27 88 2
e 27 80 2
e 27 79 2
e 27 76 1
e 27 73 3
e 27 68 6
e 27 64 4
e 27 62 7
e 27 52 6
e 27 43 9
e 27 39 8
e 27 28 1
e 28 128 1
e 28 126 9
e 28 123 4
e 28 115 2
e 28 113 6
e 28 107 6
e 28 100 6
e 28 99 6
e 28 94 2
e 28 92 9
e 28 91 7
e 28 88 2
e 28 83 5
e 28 76 10
e 28 75 4
e 28 73 9
e 28 69 5
e 28 68 3
e 28 66 4
e 28 62 9
e 28 58 7
e 28 53 6
e 28 52 5
e 28 45 4
e 28 43 5
e 28 30 2
e 29 124 7
e 29 112 9
e 29 77 2
e 29 54 10
e 29 40 5
e 30 127 1
e 30 126 8
e 30 123 9
e 30 118 2
e 30 116 6
e 30 115 4
e 30 113 5
e 30 111 9
e 30 94 3
e 30 93 7
e 30 92 1
e 30 86 3
e 30 84 9
e 30 83 8
e 30 82 6
e 30 75 4
e 30 69 4
e 30 66 10
e 30 61 5
e 30 58 7
e 30 53 5
e 30 52 9
e 30 46 10
e 30 45 8
e 30 41 7
e 30 38 4
e 30 36 4
e 31 120 1
e 31 119 7
e 31 109 8
e 31 108 5
e 31 103 8
e 31 102 1
e 31 98 10
e 31 90 3
e 31 80 1
e 31 72 1
e 31 57 8
e 31 55 6
e 31 47 8
e 31 44 10
e 32 87 3
e 32 48 3
e 32 47 4
e 32 37 10
e 32 33 4
e 33 117 5
e 33 102 1
e 33 90 9
e 33 87 9
e 33 80 8
e 33 74 2
e 33 37 5
e 33 35 5
e 34 121 2
e 34 65 8
e 34 51 3
e 35 87 7
e 36 118 3
e 36 116 5
e 36 113 2
e 36 94 4
e 36 86 7
e 36 82 10
e 36 69 1
e 36 61 6
e 36 58 4
e 36 53 8
e 36 46 10
e 36 41 10
e 36 38 10
e 37 47 8
e 38 127 4
e 38 126 9
e 38 123 7
e 38 118 4
e 38 116 2
e 38 115 8
e 38 113 10
e 38 111 10
e 38 94 7
e 38 93 10
e 38 86 8
e 38 83 8
e 38 82 5
e 38 75 3
e 38 69 4
e 38 66 4
e 38 61 8
e 38 58 2
e 38 53 4
e 38 46 1
e 38 45 10
e 38 41 3
e 39 128 6
e 39 125 5
e 39 117 8
e 39 114 9
e 39 110 3
e 39 105 6
e 39 101 10
e 39 100 2
e 39 97 5
e 39 91 8
e 39 90 1
e 39 79 4
e 39 78 1
e 39 74 8
e 39 73 5
e 39 65 2
e 39 62 2
e 39 43 6
e 40 124 4
e 40 104 9
e 40 77 5
e 40 54 3
e 40 49 4
e 41 127 3
e 41 126 9
e 41 123 5
e 41 118 10
e 41 116 1
e 41 115 6
e 41 113 9
e 41 111 9
e 41 96 6
e 41 94 8
e 41 93 7
e 41 86 10
e 41 84 10
e 41 82 9
e 41 75 2
e 41 69 5
e 41 66 3
e 41 61 8
e 41 58 6
e 41 53 4
e 41 46 6
e 41 45 10
e 42 85 4
e 42 81 7
e 42 63 10
e 42 59 6
e 42 50 6
e 43 128 2
e 43 125 9
e 43 117 8
e 43 115 2
e 43 114 4
e 43 110 7
e 43 105 3
e 43 101 1
e 43 100 7
e 43 99 4
e 43 92 10
e 43 91 7
e 43 88 10
e 43 79 4
e 43 78 2
e 43 76 8
e 43 74 10
e 43 73 9
e 43 68 5
e 43 66 5
e 43 62 7
e 43 52 2
e 44 120 3
e 44 119 9
e 44 109 5
e 44 103 8
e 44 98 7
e 44 80 2
e 44 72 10
e 44 67 3
e 44 57 10
e 44 55 10
e 45 127 1
e 45 126 10
e 45 123 1
e 45 116 4
e 45 115 4
e 45 113 9
e 45 111 1
e 45 107 2
e 45 99 1
e 45 94 7
e 45 93 7
e 45 92 6
e 45 91 6
e 45 88 4
e 45 83 2
e 45 82 7
e 45 76 4
e 45 75 4
e 45 69 2
e 45 68 8
e 45 66 4
e 45 62 1
e 45 61 3
e 45 58 10
e 45 53 7
e 45 52 2
e 45 46 9
e 46 126 3
e 46 123 4
e 46 118 3
e 46 116 3
e 46 115 5
e 46 113 1
e 46 94 3
e 46 86 10
e 46 83 8
e 46 82 1
e 46 69 1
e 46 66 3
e 46 61 1
e 46 58 3
e 46 53 3
e 46 52 4
e 47 120 7
e 47 112 8
e 48 87 3
e 49 124 5
e 49 104 8
e 49 81 10
e 49 59 2
e 50 85 5
e 50 81 1
e 50 63 10
e 50 59 6
e 51 125 3
e 51 121 1
e 51 105 10
e 51 97 3
e 51 78 3
e 51 65 2
e 52 128 7
e 52 126 5
e 52 123 3
e 52 116 9
e 52 115 7
e 52 113 8
e 52 107 3
e 52 100 4
e 52 99 10
e 52 94 3
e 52 92 2
e 52 91 10
e 52 88 2
e 52 83 9
e 52 76 5
e 52 75 2
e 52 69 5
e 52 68 10
e 52 66 1
e 52 62 3
e 52 58 9
e 52 53 7
e 53 126 7
e 53 123 6
e 53 118 4
e 53 116 10
e 53 115 8
e 53 113 10
e 53 111 3
e 53 94 3
e 53 93 1
e 53 86 8
e 53 83 2
e 53 82 3
e 53 75 7
e 53 69 4
e 53 66 7
e 53 61 2
e 53 58 3
e 54 112 6
e 54 77 2
e 55 122 9
e 55 120 10
e 55 119 9
e 55 110 2
e 55 109 9
e 55 108 7
e 55 103 4
e 55 98 3
e 55 80 7
e 55 72 8
e 55 70 8
e 55 67 4
e 55 64 6
e 55 57 5
e 56 106 2
e 56 95 6
e 56 89 9
e 56 71 1
e 56 60 5
e 57 122 6
e 57 120 9
e 57 119 8
e 57 109 10
e 57 108 1
e 57 103 9
e 57 98 10
e 57 72 7
e 57 70 9
e 57 67 4
e 57 64 5
e 58 126 5
e 58 123 5
e 58 118 1
e 58 116 8
e 58 115 9
e 58 113 5
e 58 94 3
e 58 93 2
e 58 86 9
e 58 83 10
e 58 82 3
e 58 69 10
e 58 66 4
e 58 61 7
e 59 104 1
e 59 85 8
e 59 81 9
e 59 63 3
e 60 106 6
e 60 96 2
e 60 95 2
e 60 89 6
e 60 84 9
e 60 71 5
e 60 70 2
e 61 126 3
e 61 118 4
e 61 116 4
e 61 113 5
e 61 94 10
e 61 93 3
e 61 86 4
e 61 83 8
e 61 82 9
e 61 69 4
e 62 128 9
e 62 126 7
e 62 123 3
e 62 115 1
e 62 114 5
e 62 107 2
e 62 101 8
e 62 100 2
e 62 99 3
e 62 92 2
e 62 91 7
e 62 88 9
e 62 83 1
e 62 76 1
e 62 73 5
e 62 69 10
e 62 68 3
e 62 66 1
e 63 85 3
e 63 81 6
e 64 128 3
e 64 122 8
e 64 110 6
e 64 108 3
e 64 103 7
e 64 89 8
e 64 88 2
e 64 76 8
e 64 71 4
e 64 70 1
e 64 67 7
e 65 125 3
e 65 121 3
e 65 117 1
e 65 114 7
e 65 105 7
e 65 101 2
e 65 97 2
e 65 78 1
e 65 74 8
e 66 126 8
e 66 123 2
e 66 116 6
e 66 115 9
e 66 113 8
e 66 107 9
e 66 99 5
e 66 94 4
e 66 93 5
e 66 92 7
e 66 91 2
e 66 88 3
e 66 83 10
e 66 82 2
e 66 76 6
e 66 75 2
e 66 69 8
e 66 68 5
e 67 122 5
e 67 108 7
e 67 103 4
e 67 98 1
e 67 70 8
e 68 128 6
e 68 127 5
e 68 126 9
e 68 123 10
e 68 115 8
e 68 113 10
e 68 110 6
e 68 107 3
e 68 100 5
e 68 99 3
e 68 94 7
e 68 92 3
e 68 91 10
e 68 88 1
e 68 83 4
e 68 76 8
e 68 75 2
e 68 73 2
e 68 69 3
e 69 126 1
e 69 123 4
e 69 118 2
e 69 116 6
e 69 115 3
e 69 113 6
e 69 107 8
e 69 99 7
e 69 94 5
e 69 93 10
e 69 92 5
e 69 91 8
e 69 86 1
e 69 83 2
e 69 82 3
e 69 75 8
e 70 122 9
e 70 96 7
e 70 89 6
e 70 71 3
e 71 127 1
e 71 122 1
e 71 111 5
e 71 107 7
e 71 106 3
e 71 96 8
e 71 95 1
e 71 89 9
e 71 84 2
e 71 75 4
e 72 120 2
e 72 119 4
e 72 103 8
e 72 98 5
e 73 128 10
e 73 125 9
e 73 114 1
e 73 105 7
e 73 101 4
e 73 100 8
e 73 97 8
e 73 91 6
e 73 88 5
e 73 78 8
e 73 76 1
e 73 74 2
e 74 128 9
e 74 125 10
e 74 117 3
e 74 114 9
e 74 110 6
e 74 109 7
e 74 108 3
e 74 105 4
e 74 102 8
e 74 101 6
e 74 100 1
e 74 97 10
e 74 90 9
e 74 80 10
e 74 79 7
e 74 78 7
e 75 127 7
e 75 126 8
e 75 123 1
e 75 116 10
e 75 115 3
e 75 113 5
e 75 111 7
e 75 107 1
e 75 96 8
e 75 93 10
e 75 92 7
e 75 84 8
e 76 128 6
e 76 126 10
e 76 123 5
e 76 122 6
e 76 115 6
e 76 114 4
e 76 110 5
e 76 108 4
e 76 107 5
e 76 100 10
e 76 99 5
e 76 92 1
e 76 91 5
e 76 90 8
e 76 88 3
e 76 79 8
e 77 124 2
e 78 128 1
e 78 125 2
e 78 117 1
e 78 114 2
e 78 110 6
e 78 105 7
e 78 101 8
e 78 100 10
e 78 97 5
e 78 79 8
e 79 128 10
e 79 125 5
e 79 117 3
e 79 114 10
e 79 110 9
e 79 109 8
e 79 108 5
e 79 105 2
e 79 102 3
e 79 100 2
e 79 98 9
e 79 97 8
e 79 90 7
e 79 88 8
e 79 80 4
e 80 117 7
e 80 110 5
e 80 109 10
e 80 108 9
e 80 105 6
e 80 103 9
e 80 102 9
e 80 98 4
e 80 90 5
e 81 85 9
e 82 126 2
e 82 118 10
e 82 116 5
e 82 115 2
e 82 113 1
e 82 94 6
e 82 93 3
e 82 86 10
e 82 83 5
e 83 126 2
e 83 123 5
e 83 118 3
e 83 116 6
e 83 115 2
e 83 113 6
e 83 99 2
e 83 94 10
e 83 92 6
e 83 91 7
e 83 86 10
e 84 127 2
e 84 113 2
e 84 111 2
e 84 107 10
e 84 96 2
e 84 93 3
e 84 89 2
e 86 118 8
e 86 116 3
e 86 113 8
e 86 94 1
e 86 93 10
e 88 128 9
e 88 126 9
e 88 123 7
e 88 115 1
e 88 114 7
e 88 110 2
e 88 108 9
e 88 107 7
e 88 100 7
e 88 99 6
e 88 92 3
e 88 91 10
e 88 90 5
e 89 127 4
e 89 122 5
e 89 106 2
e 89 96 7
e 89 95 7
e 90 128 6
e 90 117 2
e 90 114 10
e 90 110 3
e 90 109 8
e 90 108 8
e 90 105 9
e 90 102 7
e 90 98 4
e 90 97 8
e 91 128 9
e 91 126 1
e 91 123 10
e 91 115 2
e 91 114 4
e 91 107 8
e 91 101 9
e 91 100 8
e 91 99 1
e 91 92 2
e 92 128 9
e 92 127 4
e 92 126 3
e 92 123 7
e 92 115 4
e 92 113 8
e 92 107 7
e 92 100 7
e 92 99 2
e 92 94 2
e 93 127 1
e 93 126 7
e 93 123 9
e 93 116 7
e 93 115 5
e 93 113 10
e 93 111 9
e 93 107 1
e 93 96 1
e 93 94 7
e 94 126 3
e 94 123 3
e 94 118 3
e 94 116 5
e 94 115 6
e 94 113 10
e 94 99 1
e 95 106 2
e 96 127 1
e 96 122 1
e 96 113 7
e 96 111 1
e 96 107 10
e 97 125 6
e 97 117 6
e 97 114 9
e 97 105 8
e 97 102 4
e 97 101 8
e 97 100 2
e 98 120 3
e 98 119 1
e 98 110 4
e 98 109 7
e 98 108 4
e 98 103 5
e 98 102 2
e 99 128 6
e 99 126 5
e 99 123 6
e 99 115 4
e 99 107 8
e 99 100 2
e 100 128 10
e 100 125 5
e 100 117 5
e 100 114 3
e 100 105 10
e 100 101 8
e 101 128 8
e 101 125 5
e 101 114 3
e 101 105 1
e 102 128 6
e 102 117 9
e 102 114 3
e 102 110 2
e 102 109 9
e 102 108 2
e 102 105 4
e 103 120 6
e 103 119 1
e 103 109 5
e 103 108 9
e 104 124 4
e 105 125 1
e 105 117 3
e 105 114 6
e 105 110 4
e 107 127 10
e 107 126 2
e 107 123 8
e 107 115 9
e 107 113 2
e 107 111 2
e 108 128 8
e 108 114 4
e 108 110 8
e 108 109 10
e 109 110 10
e 110 128 7
e 110 117 1
e 110 114 3
e 111 127 3
e 111 126 4
e 111 123 5
e 111 116 8
e 111 113 7
e 113 127 2
e 113 126 5
e 113 123 7
e 113 118 10
e 113 116 4
e 113 115 5
e 114 128 4
e 114 125 10
e 114 117 8
e 115 127 8
e 115 126 5
e 115 123 2
e 115 116 8
e 116 126 5
e 116 123 2
e 116 118 6
e 117 125 10
e 119 120 5
e 123 128 4
e 123 127 3
e 123 126 9
e 126 127 5